32      4       
11      17      16      17      
0       0       0       0       0       3       2       3       4       
10      0       0       10      9       3       8       6       5       
5       11      15      0       0       2       6       5       
4       0       0       11      14      2       8       5       
8       0       17      16      0       1       7       
7       0       11      16      0       1       7       
4       6       0       0       10      2       10      9       
5       0       14      0       13      2       10      9       
4       0       17      0       11      3       14      13      11      
5       0       16      16      0       3       14      12      11      
4       0       16      10      0       2       16      15      
10      5       7       0       0       2       16      15      
6       5       0       0       17      2       16      15      
3       0       0       7       15      1       15      
7       9       0       0       17      2       20      17      
2       9       0       16      0       2       20      18      
7       11      0       0       5       1       18      
3       0       12      0       15      1       19      
5       11      0       10      0       2       22      21      
6       11      0       10      0       1       21      
3       11      0       0       13      2       24      23      
1       0       15      16      0       1       23      
1       0       13      0       17      2       28      26      
1       0       0       9       6       1       25      
7       9       7       0       0       2       28      27      
6       11      9       0       0       1       27      
2       3       0       0       17      2       30      29      
5       0       0       1       12      2       30      29      
2       11      0       16      0       1       31      
8       0       5       16      0       1       31      
2       1       17      0       0       1       32      
0       0       0       0       0       0       
